169486
48,36,47,84,10,40,66,103,37,104,100,2,77,14,13,75,57,27,26,9,58,65,43,86,0,23,73,101,42,78,90,59,95,93,69,94,53,70,35,38,72,1,61,63,89,16,20,21,32,83,52,6,31,62,99,80,30,64,51,4,29,28,54,96,41,18,46,60,102,3,74,34,50,81,71,44,24,85,45,76,5,68,105,91,22,88,92,11,7,19,15,55,39,87,12,97,8,56,79,82,33,25,49,67,98,17,48